solution status: optimal solution found
objective value:                                    6
shell_i_$_140                                       1 	(obj:0)
shell_j_$_154                                       1 	(obj:0)
shell_j_$_91                                        1 	(obj:0)
shell_j_$_144                                       1 	(obj:0)
shell_j_$_133                                       1 	(obj:0)
shell_i_$_84                                        1 	(obj:0)
shell_j_$_86                                        1 	(obj:0)
shell_j_$_155                                       1 	(obj:0)
shell_j_$_160                                       1 	(obj:0)
shell_i_$_85                                        1 	(obj:0)
shell_j_$_138                                       1 	(obj:0)
shell_j_$_152                                       1 	(obj:0)
shell_j_$_151                                       1 	(obj:0)
shell_i_$_139                                       1 	(obj:0)
shell_j_$_157                                       1 	(obj:0)
shell_j_$_136                                       1 	(obj:0)
shell_i_$_135                                       1 	(obj:0)
shell_j_$_90                                        1 	(obj:0)
shell_j_$_156                                       1 	(obj:0)
shell_i_$_137                                       1 	(obj:0)
shell_j_$_89                                        1 	(obj:0)
shell_j_$_149                                       1 	(obj:0)
shell_j_$_159                                       1 	(obj:0)
shell_j_$_92                                        1 	(obj:0)
shell_j_$_88                                        1 	(obj:0)
shell_j_$_148                                       1 	(obj:0)
shell_j_$_87                                        1 	(obj:0)
shell_j_$_158                                       1 	(obj:0)
shell_i_$_134                                       1 	(obj:0)
shell_j_$_150                                       1 	(obj:0)
shell_j_$_163                                       1 	(obj:0)
shell_j_$_162                                       1 	(obj:0)
shell_j_$_93                                        1 	(obj:0)
shell_i_$_153                                       1 	(obj:0)
shell_j_$_145                                       1 	(obj:0)
shell_j_$_161                                       1 	(obj:0)
shell_j_$_146                                       1 	(obj:0)
shell_j_$_147                                       1 	(obj:0)
$_136_y                                           -10 	(obj:0)
$_136_z                                            20 	(obj:0)
$_86_x                                              9 	(obj:0)
$_86_y                                             10 	(obj:0)
$_135_x                                            10 	(obj:0)
$_135_y                                            -6 	(obj:0)
$_135_z                                            24 	(obj:0)
$_86_z                                             20 	(obj:0)
$_91_z                                             17 	(obj:0)
$_90_x                                              9 	(obj:0)
$_90_y                                             10 	(obj:0)
$_90_z                                             16 	(obj:0)
$_140_y                                            -2 	(obj:0)
$_155_x                                             1 	(obj:0)
$_156_x                                             1 	(obj:0)
$_156_y                                            10 	(obj:0)
$_156_z                                             9 	(obj:0)
$_155_y                                            10 	(obj:0)
$_155_z                                            10 	(obj:0)
$_137_x                                            10 	(obj:0)
$_137_y                                           -10 	(obj:0)
$_137_z                                            21 	(obj:0)
$_154_x                                             1 	(obj:0)
$_144_x                                             7 	(obj:0)
$_89_x                                              5 	(obj:0)
$_89_y                                             10 	(obj:0)
$_89_z                                             18 	(obj:0)
$_160_x                                             4 	(obj:0)
$_160_y                                            10 	(obj:0)
$_149_x                                             3 	(obj:0)
$_149_y                                            10 	(obj:0)
$_149_z                                             9 	(obj:0)
$_160_z                                             7 	(obj:0)
$_144_y                                            10 	(obj:0)
$_159_x                                             2 	(obj:0)
$_159_y                                            10 	(obj:0)
$_159_z                                             6 	(obj:0)
$_144_z                                            12 	(obj:0)
$_85_x                                             10 	(obj:0)
$_92_x                                              9 	(obj:0)
$_92_y                                             10 	(obj:0)
$_92_z                                             13 	(obj:0)
$_85_y                                             10 	(obj:0)
$_85_z                                             21 	(obj:0)
$_88_x                                              9 	(obj:0)
$_88_y                                             10 	(obj:0)
$_88_z                                             21 	(obj:0)
$_154_y                                            10 	(obj:0)
$_154_z                                            11 	(obj:0)
$_148_x                                             3 	(obj:0)
$_148_y                                            10 	(obj:0)
$_148_z                                            12 	(obj:0)
$_138_x                                             9 	(obj:0)
$_138_y                                           -10 	(obj:0)
$_87_x                                              5 	(obj:0)
$_87_y                                             10 	(obj:0)
$_87_z                                             20 	(obj:0)
$_138_z                                            20 	(obj:0)
$_133_x                                             6 	(obj:0)
$_158_x                                             4 	(obj:0)
$_158_y                                            10 	(obj:0)
$_158_z                                             8 	(obj:0)
$_133_y                                            10 	(obj:0)
$_152_x                                             9 	(obj:0)
$_134_x                                            10 	(obj:0)
$_134_y                                           -10 	(obj:0)
$_134_z                                            24 	(obj:0)
$_152_y                                            10 	(obj:0)
$_152_z                                            11 	(obj:0)
$_150_x                                             3 	(obj:0)
$_150_y                                            10 	(obj:0)
$_150_z                                             7 	(obj:0)
$_133_z                                            11 	(obj:0)
$_140_z                                            13 	(obj:0)
$_163_x                                             4 	(obj:0)
$_163_y                                            10 	(obj:0)
$_163_z                                             5 	(obj:0)
$_151_x                                             5 	(obj:0)
$_151_y                                            10 	(obj:0)
$_162_x                                             3 	(obj:0)
$_162_y                                            10 	(obj:0)
$_162_z                                             5 	(obj:0)
$_151_z                                             7 	(obj:0)
$_140_x                                            10 	(obj:0)
$_93_x                                              5 	(obj:0)
$_93_y                                             10 	(obj:0)
$_93_z                                             12 	(obj:0)
$_84_x                                             10 	(obj:0)
$_139_x                                            10 	(obj:0)
$_153_x                                            10 	(obj:0)
$_153_y                                             6 	(obj:0)
$_153_z                                             7 	(obj:0)
$_139_y                                            -8 	(obj:0)
$_139_z                                            19 	(obj:0)
$_145_x                                             6 	(obj:0)
$_145_y                                            10 	(obj:0)
$_145_z                                            12 	(obj:0)
$_84_y                                              9 	(obj:0)
$_84_z                                             21 	(obj:0)
$_161_x                                             1 	(obj:0)
$_161_y                                            10 	(obj:0)
$_161_z                                             5 	(obj:0)
$_157_x                                             2 	(obj:0)
$_157_y                                            10 	(obj:0)
$_146_x                                             5 	(obj:0)
$_146_y                                            10 	(obj:0)
$_146_z                                            10 	(obj:0)
$_157_z                                             9 	(obj:0)
$_91_x                                              5 	(obj:0)
$_147_x                                             4 	(obj:0)
$_147_y                                            10 	(obj:0)
$_147_z                                            10 	(obj:0)
$_91_y                                             10 	(obj:0)
$_136_x                                            10 	(obj:0)
x207                                                1 	(obj:1)
x208                                                1 	(obj:1)
x231                                                2 	(obj:1)
x265                                                1 	(obj:1)
x280                                                1 	(obj:1)
